  0 300 352 466 217 238 431 336
300   0 638 180 595 190 138 271
352 638   0 251  88 401 189 386
466 180 251   0 139 371 169 316
217 595  88 139   0 310 211 295
238 190 401 371 310   0 202 122
431 138 189 169 211 202   0 183
336 271 386 316 295 122 183   0
